p cnf 15 17
-1 5 11 -2 4 10 14 0 
-3 -4 2 10 14 0 
-5 1 11 -6 9 14 0 
-7 13 -6 9 15 0 
-8 -5 1 11 15 0 
-1 5 11 -2 4 10 15 0 
-9 6 15 0 
-9 6 14 0 
-10 2 4 15 0 
-10 2 4 -11 1 5 14 0 
-8 -6 9 14 0 
-12 -6 9 15 0 
-8 -7 13 14 0 
-8 -7 13 15 0 
-8 -3 15 0 
-13 7 -6 9 14 0 
-12 -5 1 11 -4 2 10 14 0 
